NAME          
ROWS
 N  OBJ
 L  c1_1
 L  c2
 L  c3
 L  c4
 L  c5
 G  c1
COLUMNS
    ss[1]     c1        1
    ss[1]     OBJ       1000
    s[1]      c1_1      1
    s[1]      OBJ       -1000
    s[2]      c2        1
    s[2]      OBJ       -1000
    s[3]      c3        1
    s[3]      OBJ       -1000
    s[4]      c4        1
    s[4]      OBJ       -1000
    s[5]      c5        1
    s[5]      OBJ       -1000
    MARKER    'MARKER'                 'INTORG'
    x[1]      c1_1      42
    x[1]      c2        509
    x[1]      c3        806
    x[1]      c4        404
    x[1]      c5        475
    x[1]      c1        556
    x[1]      OBJ       -248
    x[2]      c1_1      41
    x[2]      c2        883
    x[2]      c3        361
    x[2]      c4        197
    x[2]      c5        36
    x[2]      c1        125
    x[2]      OBJ       -494
    x[3]      c1_1      523
    x[3]      c2        229
    x[3]      c3        199
    x[3]      c4        817
    x[3]      c5        287
    x[3]      c1        736
    x[3]      OBJ       -15
    x[4]      c1_1      215
    x[4]      c2        569
    x[4]      c3        781
    x[4]      c4        1000
    x[4]      c5        577
    x[4]      c1        557
    x[4]      OBJ       -272
    x[5]      c1_1      819
    x[5]      c2        706
    x[5]      c3        596
    x[5]      c4        44
    x[5]      c5        45
    x[5]      c1        301
    x[5]      OBJ       -202
    x[6]      c1_1      551
    x[6]      c2        639
    x[6]      c3        669
    x[6]      c4        307
    x[6]      c5        700
    x[6]      c1        6
    x[6]      OBJ       -999
    x[7]      c1_1      69
    x[7]      c2        114
    x[7]      c3        957
    x[7]      c4        39
    x[7]      c5        803
    x[7]      c1        111
    x[7]      OBJ       -291
    x[8]      c1_1      193
    x[8]      c2        727
    x[8]      c3        358
    x[8]      c4        659
    x[8]      c5        654
    x[8]      c1        16
    x[8]      OBJ       -739
    x[9]      c1_1      582
    x[9]      c2        491
    x[9]      c3        259
    x[9]      c4        46
    x[9]      c5        196
    x[9]      c1        704
    x[9]      OBJ       -49
    x[10]     c1_1      375
    x[10]     c2        481
    x[10]     c3        888
    x[10]     c4        334
    x[10]     c5        844
    x[10]     c1        952
    x[10]     OBJ       -24
    x[11]     c1_1      367
    x[11]     c2        681
    x[11]     c3        319
    x[11]     c4        448
    x[11]     c5        657
    x[11]     c1        408
    x[11]     OBJ       -340
    x[12]     c1_1      478
    x[12]     c2        948
    x[12]     c3        751
    x[12]     c4        599
    x[12]     c5        387
    x[12]     c1        492
    x[12]     OBJ       -307
    x[13]     c1_1      162
    x[13]     c2        687
    x[13]     c3        275
    x[13]     c4        931
    x[13]     c5        518
    x[13]     c1        163
    x[13]     OBJ       -690
    x[14]     c1_1      898
    x[14]     c2        941
    x[14]     c3        177
    x[14]     c4        776
    x[14]     c5        143
    x[14]     c1        938
    x[14]     OBJ       -101
    x[15]     c1_1      550
    x[15]     c2        350
    x[15]     c3        883
    x[15]     c4        263
    x[15]     c5        515
    x[15]     c1        315
    x[15]     OBJ       -638
    x[16]     c1_1      553
    x[16]     c2        253
    x[16]     c3        749
    x[16]     c4        980
    x[16]     c5        335
    x[16]     c1        949
    x[16]     OBJ       -23
    x[17]     c1_1      298
    x[17]     c2        573
    x[17]     c3        229
    x[17]     c4        807
    x[17]     c5        942
    x[17]     c1        670
    x[17]     OBJ       -66
    x[18]     c1_1      577
    x[18]     c2        40
    x[18]     c3        265
    x[18]     c4        378
    x[18]     c5        701
    x[18]     c1        1000
    x[18]     OBJ       161
    x[19]     c1_1      493
    x[19]     c2        124
    x[19]     c3        282
    x[19]     c4        278
    x[19]     c5        332
    x[19]     c1        457
    x[19]     OBJ       -263
    x[20]     c1_1      183
    x[20]     c2        384
    x[20]     c3        694
    x[20]     c4        841
    x[20]     c5        803
    x[20]     c1        816
    x[20]     OBJ       -109
    x[21]     c1_1      260
    x[21]     c2        660
    x[21]     c3        819
    x[21]     c4        700
    x[21]     c5        265
    x[21]     c1        357
    x[21]     OBJ       -541
    x[22]     c1_1      224
    x[22]     c2        951
    x[22]     c3        77
    x[22]     c4        210
    x[22]     c5        922
    x[22]     c1        495
    x[22]     OBJ       -431
    x[23]     c1_1      852
    x[23]     c2        739
    x[23]     c3        190
    x[23]     c4        542
    x[23]     c5        908
    x[23]     c1        916
    x[23]     OBJ       -14
    x[24]     c1_1      394
    x[24]     c2        329
    x[24]     c3        551
    x[24]     c4        636
    x[24]     c5        139
    x[24]     c1        852
    x[24]     OBJ       -9
    x[25]     c1_1      958
    x[25]     c2        146
    x[25]     c3        140
    x[25]     c4        388
    x[25]     c5        995
    x[25]     c1        614
    x[25]     OBJ       -290
    x[26]     c1_1      282
    x[26]     c2        593
    x[26]     c3        442
    x[26]     c4        129
    x[26]     c5        845
    x[26]     c1        161
    x[26]     OBJ       -561
    x[27]     c1_1      402
    x[27]     c2        658
    x[27]     c3        867
    x[27]     c4        203
    x[27]     c5        487
    x[27]     c1        60
    x[27]     OBJ       -856
    x[28]     c1_1      604
    x[28]     c2        816
    x[28]     c3        283
    x[28]     c4        110
    x[28]     c5        100
    x[28]     c1        382
    x[28]     OBJ       -373
    x[29]     c1_1      164
    x[29]     c2        638
    x[29]     c3        137
    x[29]     c4        817
    x[29]     c5        447
    x[29]     c1        373
    x[29]     OBJ       -381
    x[30]     c1_1      308
    x[30]     c2        717
    x[30]     c3        359
    x[30]     c4        502
    x[30]     c5        653
    x[30]     c1        570
    x[30]     OBJ       -262
    x[31]     c1_1      218
    x[31]     c2        779
    x[31]     c3        445
    x[31]     c4        657
    x[31]     c5        649
    x[31]     c1        182
    x[31]     OBJ       -499
    x[32]     c1_1      61
    x[32]     c2        289
    x[32]     c3        58
    x[32]     c4        804
    x[32]     c5        738
    x[32]     c1        934
    x[32]     OBJ       193
    x[33]     c1_1      273
    x[33]     c2        430
    x[33]     c3        440
    x[33]     c4        662
    x[33]     c5        424
    x[33]     c1        129
    x[33]     OBJ       -410
    x[34]     c1_1      772
    x[34]     c2        851
    x[34]     c3        192
    x[34]     c4        989
    x[34]     c5        475
    x[34]     c1        542
    x[34]     OBJ       -609
    x[35]     c1_1      191
    x[35]     c2        937
    x[35]     c3        485
    x[35]     c4        585
    x[35]     c5        425
    x[35]     c1        767
    x[35]     OBJ       -72
    x[36]     c1_1      117
    x[36]     c2        289
    x[36]     c3        744
    x[36]     c4        645
    x[36]     c5        926
    x[36]     c1        964
    x[36]     OBJ       85
    x[37]     c1_1      276
    x[37]     c2        159
    x[37]     c3        844
    x[37]     c4        113
    x[37]     c5        795
    x[37]     c1        896
    x[37]     OBJ       345
    x[38]     c1_1      877
    x[38]     c2        260
    x[38]     c3        969
    x[38]     c4        436
    x[38]     c5        47
    x[38]     c1        350
    x[38]     OBJ       -257
    x[39]     c1_1      415
    x[39]     c2        930
    x[39]     c3        50
    x[39]     c4        610
    x[39]     c5        136
    x[39]     c1        178
    x[39]     OBJ       -314
    x[40]     c1_1      873
    x[40]     c2        248
    x[40]     c3        833
    x[40]     c4        948
    x[40]     c5        801
    x[40]     c1        557
    x[40]     OBJ       -411
    x[41]     c1_1      902
    x[41]     c2        656
    x[41]     c3        57
    x[41]     c4        919
    x[41]     c5        904
    x[41]     c1        975
    x[41]     OBJ       -196
    x[42]     c1_1      465
    x[42]     c2        833
    x[42]     c3        877
    x[42]     c4        115
    x[42]     c5        740
    x[42]     c1        70
    x[42]     OBJ       -943
    x[43]     c1_1      320
    x[43]     c2        892
    x[43]     c3        482
    x[43]     c4        967
    x[43]     c5        768
    x[43]     c1        226
    x[43]     OBJ       -709
    x[44]     c1_1      870
    x[44]     c2        60
    x[44]     c3        732
    x[44]     c4        13
    x[44]     c5        460
    x[44]     c1        356
    x[44]     OBJ       -307
    x[45]     c1_1      244
    x[45]     c2        278
    x[45]     c3        968
    x[45]     c4        445
    x[45]     c5        76
    x[45]     c1        404
    x[45]     OBJ       -408
    x[46]     c1_1      781
    x[46]     c2        741
    x[46]     c3        113
    x[46]     c4        449
    x[46]     c5        660
    x[46]     c1        79
    x[46]     OBJ       -780
    x[47]     c1_1      86
    x[47]     c2        297
    x[47]     c3        486
    x[47]     c4        740
    x[47]     c5        500
    x[47]     c1        833
    x[47]     OBJ       -62
    x[48]     c1_1      622
    x[48]     c2        967
    x[48]     c3        710
    x[48]     c4        592
    x[48]     c5        915
    x[48]     c1        616
    x[48]     OBJ       -276
    x[49]     c1_1      665
    x[49]     c2        86
    x[49]     c3        439
    x[49]     c4        327
    x[49]     c5        897
    x[49]     c1        575
    x[49]     OBJ       -164
    x[50]     c1_1      155
    x[50]     c2        249
    x[50]     c3        747
    x[50]     c4        167
    x[50]     c5        25
    x[50]     c1        987
    x[50]     OBJ       633
    x[51]     c1_1      680
    x[51]     c2        354
    x[51]     c3        174
    x[51]     c4        368
    x[51]     c5        716
    x[51]     c1        340
    x[51]     OBJ       -409
    x[52]     c1_1      101
    x[52]     c2        614
    x[52]     c3        260
    x[52]     c4        335
    x[52]     c5        557
    x[52]     c1        794
    x[52]     OBJ       195
    x[53]     c1_1      665
    x[53]     c2        836
    x[53]     c3        877
    x[53]     c4        179
    x[53]     c5        72
    x[53]     c1        321
    x[53]     OBJ       -281
    x[54]     c1_1      227
    x[54]     c2        290
    x[54]     c3        474
    x[54]     c4        909
    x[54]     c5        696
    x[54]     c1        337
    x[54]     OBJ       -572
    x[55]     c1_1      597
    x[55]     c2        893
    x[55]     c3        841
    x[55]     c4        825
    x[55]     c5        653
    x[55]     c1        580
    x[55]     OBJ       -240
    x[56]     c1_1      354
    x[56]     c2        857
    x[56]     c3        422
    x[56]     c4        614
    x[56]     c5        933
    x[56]     c1        920
    x[56]     OBJ       277
    x[57]     c1_1      597
    x[57]     c2        158
    x[57]     c3        280
    x[57]     c4        987
    x[57]     c5        420
    x[57]     c1        425
    x[57]     OBJ       -286
    x[58]     c1_1      79
    x[58]     c2        869
    x[58]     c3        684
    x[58]     c4        350
    x[58]     c5        582
    x[58]     c1        170
    x[58]     OBJ       -614
    x[59]     c1_1      162
    x[59]     c2        206
    x[59]     c3        330
    x[59]     c4        179
    x[59]     c5        810
    x[59]     c1        955
    x[59]     OBJ       157
    x[60]     c1_1      998
    x[60]     c2        504
    x[60]     c3        910
    x[60]     c4        415
    x[60]     c5        861
    x[60]     c1        581
    x[60]     OBJ       -383
    x[61]     c1_1      849
    x[61]     c2        799
    x[61]     c3        791
    x[61]     c4        821
    x[61]     c5        758
    x[61]     c1        739
    x[61]     OBJ       -383
    x[62]     c1_1      136
    x[62]     c2        758
    x[62]     c3        322
    x[62]     c4        525
    x[62]     c5        647
    x[62]     c1        622
    x[62]     OBJ       -272
    x[63]     c1_1      112
    x[63]     c2        431
    x[63]     c3        404
    x[63]     c4        774
    x[63]     c5        237
    x[63]     c1        473
    x[63]     OBJ       -92
    x[64]     c1_1      751
    x[64]     c2        580
    x[64]     c3        403
    x[64]     c4        283
    x[64]     c5        631
    x[64]     c1        789
    x[64]     OBJ       122
    x[65]     c1_1      735
    x[65]     c2        780
    x[65]     c3        519
    x[65]     c4        427
    x[65]     c5        271
    x[65]     c1        946
    x[65]     OBJ       -9
    x[66]     c1_1      884
    x[66]     c2        788
    x[66]     c3        148
    x[66]     c4        275
    x[66]     c5        91
    x[66]     c1        499
    x[66]     OBJ       -285
    x[67]     c1_1      71
    x[67]     c2        583
    x[67]     c3        948
    x[67]     c4        659
    x[67]     c5        75
    x[67]     c1        666
    x[67]     OBJ       -218
    x[68]     c1_1      449
    x[68]     c2        641
    x[68]     c3        414
    x[68]     c4        392
    x[68]     c5        756
    x[68]     c1        546
    x[68]     OBJ       -87
    x[69]     c1_1      266
    x[69]     c2        32
    x[69]     c3        894
    x[69]     c4        73
    x[69]     c5        409
    x[69]     c1        630
    x[69]     OBJ       253
    x[70]     c1_1      420
    x[70]     c2        653
    x[70]     c3        147
    x[70]     c4        896
    x[70]     c5        440
    x[70]     c1        997
    x[70]     OBJ       355
    x[71]     c1_1      797
    x[71]     c2        252
    x[71]     c3        73
    x[71]     c4        68
    x[71]     c5        483
    x[71]     c1        462
    x[71]     OBJ       -224
    x[72]     c1_1      945
    x[72]     c2        709
    x[72]     c3        297
    x[72]     c4        982
    x[72]     c5        336
    x[72]     c1        750
    x[72]     OBJ       -366
    x[73]     c1_1      746
    x[73]     c2        129
    x[73]     c3        97
    x[73]     c4        697
    x[73]     c5        765
    x[73]     c1        841
    x[73]     OBJ       163
    x[74]     c1_1      46
    x[74]     c2        368
    x[74]     c3        651
    x[74]     c4        421
    x[74]     c5        637
    x[74]     c1        795
    x[74]     OBJ       -37
    x[75]     c1_1      44
    x[75]     c2        440
    x[75]     c3        380
    x[75]     c4        246
    x[75]     c5        981
    x[75]     c1        2
    x[75]     OBJ       -470
    x[76]     c1_1      545
    x[76]     c2        314
    x[76]     c3        67
    x[76]     c4        672
    x[76]     c5        980
    x[76]     c1        522
    x[76]     OBJ       -125
    x[77]     c1_1      882
    x[77]     c2        287
    x[77]     c3        582
    x[77]     c4        649
    x[77]     c5        202
    x[77]     c1        778
    x[77]     OBJ       -115
    x[78]     c1_1      72
    x[78]     c2        854
    x[78]     c3        973
    x[78]     c4        731
    x[78]     c5        35
    x[78]     c1        42
    x[78]     OBJ       -812
    x[79]     c1_1      383
    x[79]     c2        460
    x[79]     c3        143
    x[79]     c4        191
    x[79]     c5        594
    x[79]     c1        714
    x[79]     OBJ       -33
    x[80]     c1_1      714
    x[80]     c2        594
    x[80]     c3        732
    x[80]     c4        514
    x[80]     c5        689
    x[80]     c1        645
    x[80]     OBJ       -375
    x[81]     c1_1      987
    x[81]     c2        512
    x[81]     c3        624
    x[81]     c4        983
    x[81]     c5        602
    x[81]     c1        855
    x[81]     OBJ       -1
    x[82]     c1_1      183
    x[82]     c2        239
    x[82]     c3        518
    x[82]     c4        886
    x[82]     c5        76
    x[82]     c1        396
    x[82]     OBJ       -106
    x[83]     c1_1      731
    x[83]     c2        719
    x[83]     c3        847
    x[83]     c4        95
    x[83]     c5        767
    x[83]     c1        768
    x[83]     OBJ       -276
    x[84]     c1_1      301
    x[84]     c2        751
    x[84]     c3        113
    x[84]     c4        846
    x[84]     c5        693
    x[84]     c1        392
    x[84]     OBJ       -236
    x[85]     c1_1      718
    x[85]     c2        708
    x[85]     c3        382
    x[85]     c4        689
    x[85]     c5        893
    x[85]     c1        141
    x[85]     OBJ       -543
    x[86]     c1_1      91
    x[86]     c2        670
    x[86]     c3        97
    x[86]     c4        206
    x[86]     c5        160
    x[86]     c1        544
    x[86]     OBJ       84
    x[87]     c1_1      109
    x[87]     c2        269
    x[87]     c3        905
    x[87]     c4        417
    x[87]     c5        785
    x[87]     c1        847
    x[87]     OBJ       173
    x[88]     c1_1      567
    x[88]     c2        832
    x[88]     c3        398
    x[88]     c4        14
    x[88]     c5        311
    x[88]     c1        263
    x[88]     OBJ       -618
    x[89]     c1_1      708
    x[89]     c2        137
    x[89]     c3        859
    x[89]     c4        735
    x[89]     c5        417
    x[89]     c1        325
    x[89]     OBJ       -334
    x[90]     c1_1      507
    x[90]     c2        356
    x[90]     c3        4
    x[90]     c4        267
    x[90]     c5        748
    x[90]     c1        227
    x[90]     OBJ       -543
    x[91]     c1_1      983
    x[91]     c2        960
    x[91]     c3        142
    x[91]     c4        822
    x[91]     c5        375
    x[91]     c1        765
    x[91]     OBJ       -309
    x[92]     c1_1      808
    x[92]     c2        651
    x[92]     c3        110
    x[92]     c4        977
    x[92]     c5        362
    x[92]     c1        128
    x[92]     OBJ       -464
    x[93]     c1_1      766
    x[93]     c2        398
    x[93]     c3        11
    x[93]     c4        302
    x[93]     c5        617
    x[93]     c1        10
    x[93]     OBJ       -456
    x[94]     c1_1      615
    x[94]     c2        893
    x[94]     c3        213
    x[94]     c4        687
    x[94]     c5        553
    x[94]     c1        973
    x[94]     OBJ       -52
    x[95]     c1_1      554
    x[95]     c2        407
    x[95]     c3        398
    x[95]     c4        118
    x[95]     c5        474
    x[95]     c1        162
    x[95]     OBJ       -604
    x[96]     c1_1      282
    x[96]     c2        477
    x[96]     c3        173
    x[96]     c4        990
    x[96]     c5        915
    x[96]     c1        743
    x[96]     OBJ       154
    x[97]     c1_1      995
    x[97]     c2        552
    x[97]     c3        106
    x[97]     c4        323
    x[97]     c5        457
    x[97]     c1        208
    x[97]     OBJ       -495
    x[98]     c1_1      946
    x[98]     c2        805
    x[98]     c3        331
    x[98]     c4        993
    x[98]     c5        261
    x[98]     c1        223
    x[98]     OBJ       -859
    x[99]     c1_1      651
    x[99]     c2        881
    x[99]     c3        254
    x[99]     c4        525
    x[99]     c5        350
    x[99]     c1        981
    x[99]     OBJ       266
    x[100]    c1_1      298
    x[100]    c2        850
    x[100]    c3        447
    x[100]    c4        322
    x[100]    c5        635
    x[100]    c1        143
    x[100]    OBJ       -646
RHS
    rhs       c1_1      11927
    rhs       c2        13727
    rhs       c3        11551
    rhs       c4        13056
    rhs       c5        13460
    rhs       c1        13162
RANGES
BOUNDS
 LO bounds    ss[1]     0
 PL bounds    ss[1]
 MI bounds    s[1]
 UP bounds    s[1]      0
 MI bounds    s[2]
 UP bounds    s[2]      0
 MI bounds    s[3]
 UP bounds    s[3]      0
 MI bounds    s[4]
 UP bounds    s[4]      0
 MI bounds    s[5]
 UP bounds    s[5]      0
 BV bounds    x[1]
 BV bounds    x[2]
 BV bounds    x[3]
 BV bounds    x[4]
 BV bounds    x[5]
 BV bounds    x[6]
 BV bounds    x[7]
 BV bounds    x[8]
 BV bounds    x[9]
 BV bounds    x[10]
 BV bounds    x[11]
 BV bounds    x[12]
 BV bounds    x[13]
 BV bounds    x[14]
 BV bounds    x[15]
 BV bounds    x[16]
 BV bounds    x[17]
 BV bounds    x[18]
 BV bounds    x[19]
 BV bounds    x[20]
 BV bounds    x[21]
 BV bounds    x[22]
 BV bounds    x[23]
 BV bounds    x[24]
 BV bounds    x[25]
 BV bounds    x[26]
 BV bounds    x[27]
 BV bounds    x[28]
 BV bounds    x[29]
 BV bounds    x[30]
 BV bounds    x[31]
 BV bounds    x[32]
 BV bounds    x[33]
 BV bounds    x[34]
 BV bounds    x[35]
 BV bounds    x[36]
 BV bounds    x[37]
 BV bounds    x[38]
 BV bounds    x[39]
 BV bounds    x[40]
 BV bounds    x[41]
 BV bounds    x[42]
 BV bounds    x[43]
 BV bounds    x[44]
 BV bounds    x[45]
 BV bounds    x[46]
 BV bounds    x[47]
 BV bounds    x[48]
 BV bounds    x[49]
 BV bounds    x[50]
 BV bounds    x[51]
 BV bounds    x[52]
 BV bounds    x[53]
 BV bounds    x[54]
 BV bounds    x[55]
 BV bounds    x[56]
 BV bounds    x[57]
 BV bounds    x[58]
 BV bounds    x[59]
 BV bounds    x[60]
 BV bounds    x[61]
 BV bounds    x[62]
 BV bounds    x[63]
 BV bounds    x[64]
 BV bounds    x[65]
 BV bounds    x[66]
 BV bounds    x[67]
 BV bounds    x[68]
 BV bounds    x[69]
 BV bounds    x[70]
 BV bounds    x[71]
 BV bounds    x[72]
 BV bounds    x[73]
 BV bounds    x[74]
 BV bounds    x[75]
 BV bounds    x[76]
 BV bounds    x[77]
 BV bounds    x[78]
 BV bounds    x[79]
 BV bounds    x[80]
 BV bounds    x[81]
 BV bounds    x[82]
 BV bounds    x[83]
 BV bounds    x[84]
 BV bounds    x[85]
 BV bounds    x[86]
 BV bounds    x[87]
 BV bounds    x[88]
 BV bounds    x[89]
 BV bounds    x[90]
 BV bounds    x[91]
 BV bounds    x[92]
 BV bounds    x[93]
 BV bounds    x[94]
 BV bounds    x[95]
 BV bounds    x[96]
 BV bounds    x[97]
 BV bounds    x[98]
 BV bounds    x[99]
 BV bounds    x[100]
ENDATA
